Ba1 Zr1 O3
1.0
5.000000 0.000000 0.000000
0.000000 5.000000 0.000000
0.000000 0.000000 5.000000
Ba Zr O
1 1 3
direct
0.500000 0.500000 0.500000
0.000000 0.000000 0.000000
0.000000 0.000000 0.500000
0.000000 0.500000 0.000000
0.500000 0.000000 0.000000
